% Auto-generated by scripts/generate_dzn.py
% problem_type   = regex
% instance       = regex_20
% source_json    = instances_json/2_high_blowup/regex_20.json
% blowup         = 52.03225806451613
% representation = NFA

mode = 1;

var_count = 19;
n_constraints = 2;
Q = 16;
S = 2;
q0 = [1, 1];
F = [{16}, {15}];
weights = [5, 1, 3, 6, 9, 1, 7, 8, 5, 7, 8, 3, 1, 10, 4, 5, 6, 5, 10];
d_dfa = array3d(1..2, 1..16, 1..2, [
  % k = 1
    0, 0,
    0, 0,
    0, 0,
    0, 0,
    0, 0,
    0, 0,
    0, 0,
    0, 0,
    0, 0,
    0, 0,
    0, 0,
    0, 0,
    0, 0,
    0, 0,
    0, 0,
    0, 0,

  % k = 2
    0, 0,
    0, 0,
    0, 0,
    0, 0,
    0, 0,
    0, 0,
    0, 0,
    0, 0,
    0, 0,
    0, 0,
    0, 0,
    0, 0,
    0, 0,
    0, 0,
    0, 0,
    0, 0
]);
d_nfa = array3d(1..2, 1..16, 1..2, [
  % k = 1
    {1, 2}, {1},
    {}, {3},
    {4}, {4},
    {5}, {5},
    {6}, {6},
    {7}, {7},
    {8}, {8},
    {9}, {9},
    {10}, {10},
    {11}, {11},
    {12}, {12},
    {13}, {13},
    {14}, {14},
    {15}, {15},
    {16}, {16},
    {}, {},

  % k = 2
    {2}, {1},
    {3}, {2},
    {4}, {3},
    {5}, {4},
    {6}, {5},
    {7}, {6},
    {8}, {7},
    {9}, {8},
    {10}, {9},
    {11}, {10},
    {12}, {11},
    {13}, {12},
    {14}, {13},
    {15}, {14},
    {}, {15},
    {}, {}
]);
